(set-logic QF_UF)
(declare-fun A0 () Bool)
(declare-fun A1 () Bool)
(declare-fun A2 () Bool)
(declare-fun A3 () Bool)
(declare-fun A5 () Bool)
(declare-fun A7 () Bool)
(declare-fun A8 () Bool)
(declare-fun A9 () Bool)
(declare-fun A10 () Bool)
(declare-fun A11 () Bool)
(declare-fun A12 () Bool)
(declare-fun A13 () Bool)
(declare-fun A14 () Bool)
(declare-fun A15 () Bool)
(declare-fun A16 () Bool)
(declare-fun A17 () Bool)
(declare-fun A19 () Bool)
(declare-fun A20 () Bool)
(declare-fun A21 () Bool)
(declare-fun A22 () Bool)
(declare-fun A23 () Bool)
(declare-fun A24 () Bool)
(declare-fun A26 () Bool)
(declare-fun A27 () Bool)
(declare-fun A28 () Bool)
(declare-fun A29 () Bool)
(assert (let ((.def_0 (not A8))) (let ((.def_1 (not A3))) (let ((.def_2 (and .def_1 .def_0))) (let ((.def_3 (and .def_0 A9))) (let ((.def_4 (or .def_3 .def_2))) (let ((.def_5 (not A17))) (let ((.def_6 (and A16 .def_5))) (let ((.def_7 (or A19 A3))) (let ((.def_8 (not .def_7))) (let ((.def_9 (= .def_8 .def_6))) (let ((.def_10 (or .def_9 .def_4))) (let ((.def_11 (not A5))) (let ((.def_12 (= .def_11 .def_0))) (let ((.def_13 (not A13))) (let ((.def_14 (not A19))) (let ((.def_15 (and .def_14 .def_13))) (let ((.def_16 (and .def_15 .def_12))) (let ((.def_17 (not .def_16))) (let ((.def_18 (not A14))) (let ((.def_19 (or .def_18 A7))) (let ((.def_20 (not .def_19))) (let ((.def_21 (or A29 A27))) (let ((.def_22 (not .def_21))) (let ((.def_23 (or .def_22 .def_20))) (let ((.def_24 (not .def_23))) (let ((.def_25 (and .def_24 .def_17))) (let ((.def_26 (and .def_25 .def_10))) (let ((.def_27 (not A24))) (let ((.def_28 (not A16))) (let ((.def_29 (or .def_28 .def_27))) (let ((.def_30 (= A22 A26))) (let ((.def_31 (or .def_30 .def_29))) (let ((.def_32 (or A19 A17))) (let ((.def_33 (not .def_32))) (let ((.def_34 (not A20))) (let ((.def_35 (not A9))) (let ((.def_36 (or .def_35 .def_34))) (let ((.def_37 (not .def_36))) (let ((.def_38 (and .def_37 .def_33))) (let ((.def_39 (not .def_38))) (let ((.def_40 (and .def_39 .def_31))) (let ((.def_41 (not .def_40))) (let ((.def_42 (or A17 .def_13))) (let ((.def_43 (and A14 .def_28))) (let ((.def_44 (and .def_43 .def_42))) (let ((.def_45 (not .def_44))) (let ((.def_46 (not A27))) (let ((.def_47 (= A28 .def_46))) (let ((.def_48 (or A21 .def_27))) (let ((.def_49 (or .def_48 .def_47))) (let ((.def_50 (not .def_49))) (let ((.def_51 (and .def_50 .def_45))) (let ((.def_52 (not .def_51))) (let ((.def_53 (or .def_52 .def_41))) (let ((.def_54 (and .def_53 .def_26))) (let ((.def_55 (or A5 A8))) (let ((.def_56 (not .def_55))) (let ((.def_57 (not A2))) (let ((.def_58 (and A28 .def_57))) (let ((.def_59 (not .def_58))) (let ((.def_60 (and .def_59 .def_56))) (let ((.def_61 (and A8 .def_34))) (let ((.def_62 (not .def_61))) (let ((.def_63 (and A27 A29))) (let ((.def_64 (= .def_63 .def_62))) (let ((.def_65 (not .def_64))) (let ((.def_66 (or .def_65 .def_60))) (let ((.def_67 (not .def_66))) (let ((.def_68 (not A0))) (let ((.def_69 (and A17 .def_68))) (let ((.def_70 (not .def_69))) (let ((.def_71 (not A10))) (let ((.def_72 (and .def_57 .def_71))) (let ((.def_73 (or .def_72 .def_70))) (let ((.def_74 (not A22))) (let ((.def_75 (and .def_74 A2))) (let ((.def_76 (not A23))) (let ((.def_77 (or .def_76 A15))) (let ((.def_78 (not .def_77))) (let ((.def_79 (or .def_78 .def_75))) (let ((.def_80 (or .def_79 .def_73))) (let ((.def_81 (and .def_80 .def_67))) (let ((.def_82 (or .def_27 .def_34))) (let ((.def_83 (not A29))) (let ((.def_84 (and .def_83 A16))) (let ((.def_85 (not .def_84))) (let ((.def_86 (and .def_85 .def_82))) (let ((.def_87 (not .def_86))) (let ((.def_88 (and A1 .def_83))) (let ((.def_89 (not .def_88))) (let ((.def_90 (and .def_55 .def_89))) (let ((.def_91 (and .def_90 .def_87))) (let ((.def_92 (not A15))) (let ((.def_93 (and A13 .def_92))) (let ((.def_94 (not .def_93))) (let ((.def_95 (and A12 .def_71))) (let ((.def_96 (not .def_95))) (let ((.def_97 (and .def_96 .def_94))) (let ((.def_98 (not .def_97))) (let ((.def_99 (= .def_13 A22))) (let ((.def_100 (and A20 A11))) (let ((.def_101 (not .def_100))) (let ((.def_102 (or .def_101 .def_99))) (let ((.def_103 (and .def_102 .def_98))) (let ((.def_104 (not .def_103))) (let ((.def_105 (and .def_104 .def_91))) (let ((.def_106 (= .def_105 .def_81))) (let ((.def_107 (or .def_106 .def_54))) (let ((.def_108 (not .def_107))) .def_108))))))))))))))))))))))))))))))))))))))))))))))))))))))))))))))))))))))))))))))))))))))))))))))))))))))))))))))
(check-sat)
